NAME : XML100_2275_03
DIMENSION : 101
NB_CLUSTERS : 6
CLUSTERING_ALG : DBSCAN
CLUSTERING_PARAMS : eps(88), minSamples(3)
CLUSTERS
1 0
2 1 20 21 29 32 51 61 70 73 93
3 2 3 7 12 14 17 23 24 26 27 34 38 42 43 48 50 57 60 64 66 68 72 78 84 89 90 95 99
4 4 6 9 13 15 16 28 30 33 54 56 58 59 62 63 69 76 80 85 86 88 91 96 97
5 5 18 19 22 25 35 39 40 41 45 46 52 53 65 71 75 81 82 98
6 8 10 11 31 36 37 44 47 49 55 67 74 77 79 83 87 92 94 100
EOF